language Essence 1.3

letting codeWordLength be 13
letting dist be
        function((1, 1) --> 0, (1, 2) --> 2, (1, 3) --> 13, (1, 4) --> 14, (1, 5) --> 11, (1, 6) --> 4, (1, 7) --> 4,
                 (1, 8) --> 10, (1, 9) --> 7, (1, 10) --> 14, (1, 11) --> 3, (1, 12) --> 1, (1, 13) --> 12,
                 (1, 14) --> 11, (1, 15) --> 5, (1, 16) --> 5, (1, 17) --> 1, (1, 18) --> 7, (1, 19) --> 8,
                 (1, 20) --> 11, (1, 21) --> 3, (1, 22) --> 4, (1, 23) --> 4, (1, 24) --> 11, (1, 25) --> 9,
                 (1, 26) --> 9, (2, 1) --> 2, (2, 2) --> 0, (2, 3) --> 1, (2, 4) --> 11, (2, 5) --> 14, (2, 6) --> 2,
                 (2, 7) --> 11, (2, 8) --> 5, (2, 9) --> 14, (2, 10) --> 8, (2, 11) --> 12, (2, 12) --> 6,
                 (2, 13) --> 6, (2, 14) --> 3, (2, 15) --> 7, (2, 16) --> 10, (2, 17) --> 2, (2, 18) --> 13,
                 (2, 19) --> 10, (2, 20) --> 12, (2, 21) --> 7, (2, 22) --> 10, (2, 23) --> 12, (2, 24) --> 12,
                 (2, 25) --> 14, (2, 26) --> 11, (3, 1) --> 13, (3, 2) --> 1, (3, 3) --> 0, (3, 4) --> 13, (3, 5) --> 4,
                 (3, 6) --> 10, (3, 7) --> 9, (3, 8) --> 11, (3, 9) --> 13, (3, 10) --> 3, (3, 11) --> 1, (3, 12) --> 7,
                 (3, 13) --> 1, (3, 14) --> 6, (3, 15) --> 13, (3, 16) --> 11, (3, 17) --> 11, (3, 18) --> 9,
                 (3, 19) --> 13, (3, 20) --> 4, (3, 21) --> 7, (3, 22) --> 3, (3, 23) --> 10, (3, 24) --> 8,
                 (3, 25) --> 6, (3, 26) --> 3, (4, 1) --> 14, (4, 2) --> 11, (4, 3) --> 13, (4, 4) --> 0, (4, 5) --> 11,
                 (4, 6) --> 7, (4, 7) --> 13, (4, 8) --> 1, (4, 9) --> 13, (4, 10) --> 9, (4, 11) --> 13,
                 (4, 12) --> 11, (4, 13) --> 13, (4, 14) --> 13, (4, 15) --> 2, (4, 16) --> 0, (4, 17) --> 8,
                 (4, 18) --> 10, (4, 19) --> 7, (4, 20) --> 3, (4, 21) --> 12, (4, 22) --> 10, (4, 23) --> 10,
                 (4, 24) --> 4, (4, 25) --> 0, (4, 26) --> 13, (5, 1) --> 11, (5, 2) --> 14, (5, 3) --> 4,
                 (5, 4) --> 11, (5, 5) --> 0, (5, 6) --> 7, (5, 7) --> 4, (5, 8) --> 1, (5, 9) --> 3, (5, 10) --> 12,
                 (5, 11) --> 8, (5, 12) --> 10, (5, 13) --> 13, (5, 14) --> 8, (5, 15) --> 5, (5, 16) --> 10,
                 (5, 17) --> 5, (5, 18) --> 5, (5, 19) --> 13, (5, 20) --> 1, (5, 21) --> 14, (5, 22) --> 6,
                 (5, 23) --> 5, (5, 24) --> 2, (5, 25) --> 5, (5, 26) --> 12, (6, 1) --> 4, (6, 2) --> 2, (6, 3) --> 10,
                 (6, 4) --> 7, (6, 5) --> 7, (6, 6) --> 0, (6, 7) --> 9, (6, 8) --> 12, (6, 9) --> 0, (6, 10) --> 2,
                 (6, 11) --> 12, (6, 12) --> 6, (6, 13) --> 6, (6, 14) --> 8, (6, 15) --> 4, (6, 16) --> 3,
                 (6, 17) --> 13, (6, 18) --> 11, (6, 19) --> 6, (6, 20) --> 10, (6, 21) --> 10, (6, 22) --> 9,
                 (6, 23) --> 9, (6, 24) --> 4, (6, 25) --> 3, (6, 26) --> 4, (7, 1) --> 4, (7, 2) --> 11, (7, 3) --> 9,
                 (7, 4) --> 13, (7, 5) --> 4, (7, 6) --> 9, (7, 7) --> 0, (7, 8) --> 9, (7, 9) --> 5, (7, 10) --> 4,
                 (7, 11) --> 7, (7, 12) --> 11, (7, 13) --> 14, (7, 14) --> 2, (7, 15) --> 8, (7, 16) --> 4,
                 (7, 17) --> 7, (7, 18) --> 2, (7, 19) --> 14, (7, 20) --> 4, (7, 21) --> 0, (7, 22) --> 10,
                 (7, 23) --> 5, (7, 24) --> 13, (7, 25) --> 1, (7, 26) --> 9, (8, 1) --> 10, (8, 2) --> 5,
                 (8, 3) --> 11, (8, 4) --> 1, (8, 5) --> 1, (8, 6) --> 12, (8, 7) --> 9, (8, 8) --> 0, (8, 9) --> 2,
                 (8, 10) --> 0, (8, 11) --> 1, (8, 12) --> 5, (8, 13) --> 12, (8, 14) --> 6, (8, 15) --> 5,
                 (8, 16) --> 2, (8, 17) --> 8, (8, 18) --> 2, (8, 19) --> 13, (8, 20) --> 7, (8, 21) --> 4,
                 (8, 22) --> 14, (8, 23) --> 11, (8, 24) --> 11, (8, 25) --> 2, (8, 26) --> 10, (9, 1) --> 7,
                 (9, 2) --> 14, (9, 3) --> 13, (9, 4) --> 13, (9, 5) --> 3, (9, 6) --> 0, (9, 7) --> 5, (9, 8) --> 2,
                 (9, 9) --> 0, (9, 10) --> 9, (9, 11) --> 11, (9, 12) --> 1, (9, 13) --> 4, (9, 14) --> 1,
                 (9, 15) --> 5, (9, 16) --> 2, (9, 17) --> 3, (9, 18) --> 9, (9, 19) --> 1, (9, 20) --> 5,
                 (9, 21) --> 12, (9, 22) --> 1, (9, 23) --> 13, (9, 24) --> 1, (9, 25) --> 4, (9, 26) --> 6,
                 (10, 1) --> 14, (10, 2) --> 8, (10, 3) --> 3, (10, 4) --> 9, (10, 5) --> 12, (10, 6) --> 2,
                 (10, 7) --> 4, (10, 8) --> 0, (10, 9) --> 9, (10, 10) --> 0, (10, 11) --> 3, (10, 12) --> 5,
                 (10, 13) --> 0, (10, 14) --> 11, (10, 15) --> 13, (10, 16) --> 3, (10, 17) --> 13, (10, 18) --> 6,
                 (10, 19) --> 8, (10, 20) --> 7, (10, 21) --> 7, (10, 22) --> 13, (10, 23) --> 6, (10, 24) --> 12,
                 (10, 25) --> 6, (10, 26) --> 7, (11, 1) --> 3, (11, 2) --> 12, (11, 3) --> 1, (11, 4) --> 13,
                 (11, 5) --> 8, (11, 6) --> 12, (11, 7) --> 7, (11, 8) --> 1, (11, 9) --> 11, (11, 10) --> 3,
                 (11, 11) --> 0, (11, 12) --> 6, (11, 13) --> 2, (11, 14) --> 4, (11, 15) --> 2, (11, 16) --> 8,
                 (11, 17) --> 4, (11, 18) --> 9, (11, 19) --> 0, (11, 20) --> 13, (11, 21) --> 4, (11, 22) --> 12,
                 (11, 23) --> 12, (11, 24) --> 0, (11, 25) --> 4, (11, 26) --> 6, (12, 1) --> 1, (12, 2) --> 6,
                 (12, 3) --> 7, (12, 4) --> 11, (12, 5) --> 10, (12, 6) --> 6, (12, 7) --> 11, (12, 8) --> 5,
                 (12, 9) --> 1, (12, 10) --> 5, (12, 11) --> 6, (12, 12) --> 0, (12, 13) --> 10, (12, 14) --> 5,
                 (12, 15) --> 4, (12, 16) --> 7, (12, 17) --> 2, (12, 18) --> 6, (12, 19) --> 10, (12, 20) --> 7,
                 (12, 21) --> 14, (12, 22) --> 4, (12, 23) --> 12, (12, 24) --> 3, (12, 25) --> 14, (12, 26) --> 14,
                 (13, 1) --> 12, (13, 2) --> 6, (13, 3) --> 1, (13, 4) --> 13, (13, 5) --> 13, (13, 6) --> 6,
                 (13, 7) --> 14, (13, 8) --> 12, (13, 9) --> 4, (13, 10) --> 0, (13, 11) --> 2, (13, 12) --> 10,
                 (13, 13) --> 0, (13, 14) --> 10, (13, 15) --> 12, (13, 16) --> 14, (13, 17) --> 6, (13, 18) --> 13,
                 (13, 19) --> 10, (13, 20) --> 10, (13, 21) --> 6, (13, 22) --> 4, (13, 23) --> 13, (13, 24) --> 8,
                 (13, 25) --> 5, (13, 26) --> 9, (14, 1) --> 11, (14, 2) --> 3, (14, 3) --> 6, (14, 4) --> 13,
                 (14, 5) --> 8, (14, 6) --> 8, (14, 7) --> 2, (14, 8) --> 6, (14, 9) --> 1, (14, 10) --> 11,
                 (14, 11) --> 4, (14, 12) --> 5, (14, 13) --> 10, (14, 14) --> 0, (14, 15) --> 7, (14, 16) --> 5,
                 (14, 17) --> 9, (14, 18) --> 0, (14, 19) --> 4, (14, 20) --> 2, (14, 21) --> 12, (14, 22) --> 7,
                 (14, 23) --> 6, (14, 24) --> 1, (14, 25) --> 8, (14, 26) --> 13, (15, 1) --> 5, (15, 2) --> 7,
                 (15, 3) --> 13, (15, 4) --> 2, (15, 5) --> 5, (15, 6) --> 4, (15, 7) --> 8, (15, 8) --> 5,
                 (15, 9) --> 5, (15, 10) --> 13, (15, 11) --> 2, (15, 12) --> 4, (15, 13) --> 12, (15, 14) --> 7,
                 (15, 15) --> 0, (15, 16) --> 1, (15, 17) --> 2, (15, 18) --> 5, (15, 19) --> 6, (15, 20) --> 0,
                 (15, 21) --> 13, (15, 22) --> 9, (15, 23) --> 10, (15, 24) --> 11, (15, 25) --> 0, (15, 26) --> 13,
                 (16, 1) --> 5, (16, 2) --> 10, (16, 3) --> 11, (16, 4) --> 0, (16, 5) --> 10, (16, 6) --> 3,
                 (16, 7) --> 4, (16, 8) --> 2, (16, 9) --> 2, (16, 10) --> 3, (16, 11) --> 8, (16, 12) --> 7,
                 (16, 13) --> 14, (16, 14) --> 5, (16, 15) --> 1, (16, 16) --> 0, (16, 17) --> 8, (16, 18) --> 2,
                 (16, 19) --> 1, (16, 20) --> 9, (16, 21) --> 3, (16, 22) --> 11, (16, 23) --> 4, (16, 24) --> 11,
                 (16, 25) --> 8, (16, 26) --> 2, (17, 1) --> 1, (17, 2) --> 2, (17, 3) --> 11, (17, 4) --> 8,
                 (17, 5) --> 5, (17, 6) --> 13, (17, 7) --> 7, (17, 8) --> 8, (17, 9) --> 3, (17, 10) --> 13,
                 (17, 11) --> 4, (17, 12) --> 2, (17, 13) --> 6, (17, 14) --> 9, (17, 15) --> 2, (17, 16) --> 8,
                 (17, 17) --> 0, (17, 18) --> 7, (17, 19) --> 10, (17, 20) --> 3, (17, 21) --> 2, (17, 22) --> 2,
                 (17, 23) --> 10, (17, 24) --> 13, (17, 25) --> 4, (17, 26) --> 5, (18, 1) --> 7, (18, 2) --> 13,
                 (18, 3) --> 9, (18, 4) --> 10, (18, 5) --> 5, (18, 6) --> 11, (18, 7) --> 2, (18, 8) --> 2,
                 (18, 9) --> 9, (18, 10) --> 6, (18, 11) --> 9, (18, 12) --> 6, (18, 13) --> 13, (18, 14) --> 0,
                 (18, 15) --> 5, (18, 16) --> 2, (18, 17) --> 7, (18, 18) --> 0, (18, 19) --> 12, (18, 20) --> 9,
                 (18, 21) --> 3, (18, 22) --> 10, (18, 23) --> 12, (18, 24) --> 8, (18, 25) --> 2, (18, 26) --> 3,
                 (19, 1) --> 8, (19, 2) --> 10, (19, 3) --> 13, (19, 4) --> 7, (19, 5) --> 13, (19, 6) --> 6,
                 (19, 7) --> 14, (19, 8) --> 13, (19, 9) --> 1, (19, 10) --> 8, (19, 11) --> 0, (19, 12) --> 10,
                 (19, 13) --> 10, (19, 14) --> 4, (19, 15) --> 6, (19, 16) --> 1, (19, 17) --> 10, (19, 18) --> 12,
                 (19, 19) --> 0, (19, 20) --> 8, (19, 21) --> 8, (19, 22) --> 13, (19, 23) --> 11, (19, 24) --> 9,
                 (19, 25) --> 11, (19, 26) --> 9, (20, 1) --> 11, (20, 2) --> 12, (20, 3) --> 4, (20, 4) --> 3,
                 (20, 5) --> 1, (20, 6) --> 10, (20, 7) --> 4, (20, 8) --> 7, (20, 9) --> 5, (20, 10) --> 7,
                 (20, 11) --> 13, (20, 12) --> 7, (20, 13) --> 10, (20, 14) --> 2, (20, 15) --> 0, (20, 16) --> 9,
                 (20, 17) --> 3, (20, 18) --> 9, (20, 19) --> 8, (20, 20) --> 0, (20, 21) --> 10, (20, 22) --> 2,
                 (20, 23) --> 0, (20, 24) --> 1, (20, 25) --> 6, (20, 26) --> 3, (21, 1) --> 3, (21, 2) --> 7,
                 (21, 3) --> 7, (21, 4) --> 12, (21, 5) --> 14, (21, 6) --> 10, (21, 7) --> 0, (21, 8) --> 4,
                 (21, 9) --> 12, (21, 10) --> 7, (21, 11) --> 4, (21, 12) --> 14, (21, 13) --> 6, (21, 14) --> 12,
                 (21, 15) --> 13, (21, 16) --> 3, (21, 17) --> 2, (21, 18) --> 3, (21, 19) --> 8, (21, 20) --> 10,
                 (21, 21) --> 0, (21, 22) --> 5, (21, 23) --> 0, (21, 24) --> 3, (21, 25) --> 13, (21, 26) --> 1,
                 (22, 1) --> 4, (22, 2) --> 10, (22, 3) --> 3, (22, 4) --> 10, (22, 5) --> 6, (22, 6) --> 9,
                 (22, 7) --> 10, (22, 8) --> 14, (22, 9) --> 1, (22, 10) --> 13, (22, 11) --> 12, (22, 12) --> 4,
                 (22, 13) --> 4, (22, 14) --> 7, (22, 15) --> 9, (22, 16) --> 11, (22, 17) --> 2, (22, 18) --> 10,
                 (22, 19) --> 13, (22, 20) --> 2, (22, 21) --> 5, (22, 22) --> 0, (22, 23) --> 1, (22, 24) --> 0,
                 (22, 25) --> 4, (22, 26) --> 14, (23, 1) --> 4, (23, 2) --> 12, (23, 3) --> 10, (23, 4) --> 10,
                 (23, 5) --> 5, (23, 6) --> 9, (23, 7) --> 5, (23, 8) --> 11, (23, 9) --> 13, (23, 10) --> 6,
                 (23, 11) --> 12, (23, 12) --> 12, (23, 13) --> 13, (23, 14) --> 6, (23, 15) --> 10, (23, 16) --> 4,
                 (23, 17) --> 10, (23, 18) --> 12, (23, 19) --> 11, (23, 20) --> 0, (23, 21) --> 0, (23, 22) --> 1,
                 (23, 23) --> 0, (23, 24) --> 13, (23, 25) --> 10, (23, 26) --> 10, (24, 1) --> 11, (24, 2) --> 12,
                 (24, 3) --> 8, (24, 4) --> 4, (24, 5) --> 2, (24, 6) --> 4, (24, 7) --> 13, (24, 8) --> 11,
                 (24, 9) --> 1, (24, 10) --> 12, (24, 11) --> 0, (24, 12) --> 3, (24, 13) --> 8, (24, 14) --> 1,
                 (24, 15) --> 11, (24, 16) --> 11, (24, 17) --> 13, (24, 18) --> 8, (24, 19) --> 9, (24, 20) --> 1,
                 (24, 21) --> 3, (24, 22) --> 0, (24, 23) --> 13, (24, 24) --> 0, (24, 25) --> 3, (24, 26) --> 5,
                 (25, 1) --> 9, (25, 2) --> 14, (25, 3) --> 6, (25, 4) --> 0, (25, 5) --> 5, (25, 6) --> 3,
                 (25, 7) --> 1, (25, 8) --> 2, (25, 9) --> 4, (25, 10) --> 6, (25, 11) --> 4, (25, 12) --> 14,
                 (25, 13) --> 5, (25, 14) --> 8, (25, 15) --> 0, (25, 16) --> 8, (25, 17) --> 4, (25, 18) --> 2,
                 (25, 19) --> 11, (25, 20) --> 6, (25, 21) --> 13, (25, 22) --> 4, (25, 23) --> 10, (25, 24) --> 3,
                 (25, 25) --> 0, (25, 26) --> 3, (26, 1) --> 9, (26, 2) --> 11, (26, 3) --> 3, (26, 4) --> 13,
                 (26, 5) --> 12, (26, 6) --> 4, (26, 7) --> 9, (26, 8) --> 10, (26, 9) --> 6, (26, 10) --> 7,
                 (26, 11) --> 6, (26, 12) --> 14, (26, 13) --> 9, (26, 14) --> 13, (26, 15) --> 13, (26, 16) --> 2,
                 (26, 17) --> 5, (26, 18) --> 3, (26, 19) --> 9, (26, 20) --> 3, (26, 21) --> 1, (26, 22) --> 14,
                 (26, 23) --> 10, (26, 24) --> 5, (26, 25) --> 3, (26, 26) --> 0)
letting maxDist be 14
letting minDist be 12
letting nbCharacter be 26
letting numOfCodeWords be 8
